71
100
80	10
79	11
78	6
77	13
76	16
75	15
74	4
73	10
72	13
71	11
70	9
69	11
68	7
67	10
66	10
65	14
64	2
63	9
62	4
61	13
60	15
59	12
58	14
57	9
56	9
55	13
54	9
53	12
52	12
51	8
50	10
49	9
48	5
47	10
46	12
45	10
44	9
43	10
42	18
41	7
40	12
39	15
38	12
37	10
36	9
35	13
34	11
33	12
32	10
31	13
30	15
29	12
28	16
27	8
26	9
25	8
24	6
23	10
22	10
21	15
20	6
19	11
18	15
17	13
16	10
15	13
14	9
13	8
12	10
11	3
10	15
